Bi Ti F 
 1.0000000000000000
     4.8990233166778827    0.0000000000000003    0.0000000000000003
     0.0000000000000000    4.8990233166778827    0.0000000000000003
     0.0000000000000000    0.0000000000000000    2.3823672305695647
 Bi  Ti  F  
   1   1   1
Cartesian
  2.4495116583389414  2.4495116583389414  0.0000000000000003
  0.0000000000000000  0.0000000000000000  0.0000000000000000
  0.0000000000000000  0.0000000000000000  1.1911836152847823
