Bi Ti F 
 1.0000000000000000
    11.0840475727960222   -5.4429598886180619    3.5209968000363912
     1.0852543569751878    0.7541025862832349   -1.4536757292813958
     6.6620785064980499   -7.2813352459315066   10.3660573681821706
 Bi  Ti  F  
   1   1   1
Cartesian
  4.3488083470960177 -7.3246942365689192 10.6543948623567193
  4.3620419785377660 -3.9472087635746704  4.7811445676864546
  1.7180314176629776 -1.8620150351549127  2.1878036472170175
